nPeces = 20;

durada = [30,40,25,40,10,30,30,10,50,50,25,40,45,50,45,25,45,5,20,50];

nInstruments = 4;

requereix = [| 2, 0, 3, 3, 
| 1, 1, 1, 0, 
| 2, 0, 2, 1, 
| 1, 0, 2, 1, 
| 3, 1, 1, 0, 
| 0, 3, 3, 2, 
| 2, 3, 3, 0, 
| 0, 3, 1, 3, 
| 3, 3, 0, 1, 
| 3, 3, 0, 3, 
| 2, 2, 1, 0, 
| 2, 1, 0, 2, 
| 2, 0, 2, 3, 
| 1, 2, 0, 1, 
| 2, 1, 2, 0, 
| 2, 2, 0, 3, 
| 3, 3, 1, 0, 
| 0, 2, 3, 2, 
| 1, 3, 2, 0, 
| 1, 0, 1, 1, 
|];

nMusics = 25;

saptocar = [| false, false, false, true, 
| true, false, true, true, 
| true, true, true, false, 
| true, false, false, false, 
| true, true, true, false, 
| true, false, false, false, 
| false, false, true, true, 
| false, true, true, true, 
| true, true, false, true, 
| false, true, true, false, 
| true, true, false, true, 
| false, false, false, true, 
| false, false, true, false, 
| true, false, true, true, 
| false, false, true, true, 
| false, true, true, true, 
| true, false, false, false, 
| false, false, true, true, 
| false, false, true, false, 
| false, true, true, false, 
| true, false, false, false, 
| true, false, false, true, 
| true, false, true, true, 
| true, false, false, false, 
| true, true, true, false, 
|];

pressupost = 1920;

salari = [2,3,3,2,3,2,2,3,3,2,3,2,2,3,2,3,2,2,2,2,2,2,3,2,3];

nPrecs = 25;
pred = [1,2,2,3,3,4,4,4,5,6,6,7,8,8,9,9,10,11,12,12,13,14,15,16,17];
succ = [9,11,20,4,5,8,6,7,15,10,12,18,9,14,10,11,13,15,17,19,16,18,16,18,20];

